<number of tasks>
20


<number of equipment>
5


<cycle time>
1000


<investment costs>
1,7993
2,10914
3,7260
4,9774
5,9313


<task times>
1,235,-1,-1,-1,204
2,-1,213,-1,165,211
3,-1,236,273,233,-1
4,-1,92,-1,135,244
5,-1,239,276,261,-1
6,-1,137,242,186,-1
7,-1,201,-1,221,246
8,-1,136,203,189,-1
9,-1,190,244,80,-1
10,-1,156,270,209,-1
11,-1,163,-1,213,173
12,-1,174,-1,233,210
13,-1,237,258,221,-1
14,-1,264,-1,251,256
15,-1,228,-1,220,222
16,-1,259,287,259,-1
17,218,-1,-1,-1,153
18,-1,235,270,243,-1
19,-1,217,195,194,-1
20,208,-1,-1,-1,138


<precedence relations>
1,8
2,6
2,7
3,4
3,5
4,8
5,8
6,8
7,9
8,10
8,11
8,12
8,13
8,14
10,15
12,17
13,16
16,18
16,20
17,19


<task types>
1,1
2,2
3,3
4,2
5,3
6,3
7,2
8,3
9,3
10,3
11,2
12,2
13,3
14,2
15,2
16,3
17,1
18,3
19,3
20,1


<line depot>
1,1
2,1
3,2
4,2
5,1


<processing costs>
1,7200
2,14400
3,7200
4,14400
5,14400


<saving costs>
1,799
2,1091
3,726
4,977
5,931


<end>
